NAME          example_2
ROWS
 N  TOTAL_PROFIT
 L  CAPACITY
COLUMNS
    PROD_A    TOTAL_PROFIT        50
    PROD_A    CAPACITY             1
    PROD_B    TOTAL_PROFIT        30
    PROD_B    CAPACITY             1
    PROD_C    TOTAL_PROFIT        40
    PROD_C    CAPACITY             1
RHS
    RHS1      CAPACITY          1000
BOUNDS
 LO BND1      PROD_A               0
 LO BND1      PROD_B               0
 LO BND1      PROD_C               0
ENDATA
